  4	29
 18
  0	 24	 11	 53	  8	 40	 37	 16	 26	 25	 54	 45	  5	 34	  4	 55	 33	 59	
 16
  0	  9	 27	 14	 38	 43	 56	  3	 17	 32	 23	 15	 52	 44	 46	 59	
 16
  0	  2	 21	  7	 29	 31	 36	 50	 19	 22	 48	 18	 58	 47	 51	 59	
 16
  0	 10	 39	 13	 42	 12	  1	 20	 30	 28	 57	 41	  6	 35	 49	 59	
